Optimal - objective value 5.00000000
      0 x_0_0                       1                       2
      2 x_1_1                       1                       0
      5 x_2_2                       1                       0
      9 x_3_3                       1                       1
     12 x_4_2                       1                      -1
     20 x_5_5                       1                       1
     22 x_6_1                       1                       0
     31 x_7_3                       1                       0
     38 x_8_2                       1                       0
     45 x_9_0                       1                       1
     60 x_10_5                      1                       0
     69 x_11_3                      1                       0
     81 x_12_3                      1                       0
     93 x_13_2                      1                       0
    106 x_14_1                      1                       0
    120 x_15_0                      1                       0
    137 x_16_1                      1                       0
    154 x_17_1                      1                       0
    173 x_18_2                      1                       0
    192 x_19_2                      1                       0
